20 102
1 2
1 3
1 4
1 9
1 13
1 14
1 15
1 17
1 18
1 20
2 3
2 5
2 6
2 7
2 8
2 9
2 11
2 13
2 17
3 5
3 7
3 10
3 11
3 15
3 17
3 18
3 19
3 20
4 5
4 7
4 8
4 9
4 10
4 11
4 12
4 13
4 15
4 17
4 19
4 20
5 6
5 7
5 9
5 10
5 11
5 12
5 13
5 14
5 15
5 17
5 20
6 7
6 8
6 9
6 14
6 15
7 8
7 9
7 10
7 11
7 12
7 15
7 16
7 19
8 11
8 13
8 16
8 17
8 18
9 10
9 11
9 13
9 14
9 15
9 19
10 11
10 12
10 16
10 18
10 19
10 20
11 13
11 15
11 16
11 17
11 19
12 14
12 19
12 20
13 15
13 16
13 17
13 18
13 19
14 15
14 17
14 18
15 19
15 20
16 17
16 18
18 20
